NAME: tsp_102
COMMENT: Random TSP instance
TYPE: TSP
DIMENSION: 50
EDGE_WEIGHT_TYPE: EUC_2D
NODE_COORD_SECTION
1 834 95
2 906 258
3 210 668
4 353 928
5 33 489
6 487 672
7 849 493
8 429 790
9 842 123
10 114 477
11 193 283
12 177 636
13 867 571
14 300 915
15 418 301
16 820 945
17 959 700
18 58 971
19 623 367
20 788 524
21 519 327
22 566 972
23 384 458
24 545 320
25 770 244
26 257 79
27 449 743
28 432 492
29 60 59
30 639 172
31 782 729
32 352 236
33 880 492
34 640 147
35 821 434
36 994 178
37 819 619
38 573 574
39 263 900
40 781 522
41 117 641
42 46 30
43 321 905
44 680 346
45 181 962
46 612 418
47 72 995
48 688 843
49 648 521
50 285 198
